(declare-sort sk2 0)
(declare-sort sk 0)
(declare-datatype list ((nil) (cons (head sk) (tail list))))
(declare-datatype Nat ((Z) (S (proj1-S Nat))))
(declare-fun take (Nat list) list)
(declare-fun len (list) Nat)
(declare-fun |-2| (Nat Nat) Nat)
(declare-fun ++ (list list) list)
(assert (forall ((y Nat)) (= (|-2| Z y) Z)))
(assert (forall ((z Nat)) (= (|-2| (S z) Z) (S z))))
(assert
  (forall ((z Nat) (x2 Nat)) (= (|-2| (S z) (S x2)) (|-2| z x2))))
(assert (forall ((y list)) (= (take Z y) nil)))
(assert (forall ((z Nat)) (= (take (S z) nil) nil)))
(assert
  (forall ((z Nat) (x2 sk) (x3 list))
    (= (take (S z) (cons x2 x3)) (cons x2 (take z x3)))))
(assert (= (len nil) Z))
(assert
  (forall ((y sk) (xs list)) (= (len (cons y xs)) (S (len xs)))))
(assert (forall ((y list)) (= (++ nil y) y)))
(assert
  (forall ((y list) (z sk) (xs list))
    (= (++ (cons z xs) y) (cons z (++ xs y)))))
